\ Model Assignment_2b
\ LP format - for model browsing. Use MPS format to capture full model detail.
Minimize
  10000 x[0] + 16.1245154965971 x[1] + 15.13274595042156 x[2] + 19 x[3]
   + 18.11077027627483 x[4] + 20.09975124224178 x[5]
   + 1.414213562373095 x[6] + 16.1245154965971 x[0] + 10000 x[1] + x[2]
   + 3.605551275463989 x[3] + 4.47213595499958 x[4]
   + 5.656854249492381 x[5] + 15.03329637837291 x[6]
   + 15.13274595042156 x[0] + x[1] + 10000 x[2] + 4.47213595499958 x[3]
   + 5 x[4] + 6.403124237432849 x[5] + 14.0356688476182 x[6] + 19 x[0]
   + 3.605551275463989 x[1] + 4.47213595499958 x[2] + 10000 x[3]
   + 2.23606797749979 x[4] + 2.23606797749979 x[5] + 18.02775637731995 x[6]
   + 18.11077027627483 x[0] + 4.47213595499958 x[1] + 5 x[2]
   + 2.23606797749979 x[3] + 10000 x[4] + 2 x[5] + 17.26267650163207 x[6]
   + 20.09975124224178 x[0] + 5.656854249492381 x[1]
   + 6.403124237432849 x[2] + 2.23606797749979 x[3] + 2 x[4] + 10000 x[5]
   + 19.23538406167134 x[6] + 1.414213562373095 x[0]
   + 15.03329637837291 x[1] + 14.0356688476182 x[2]
   + 18.02775637731995 x[3] + 17.26267650163207 x[4]
   + 19.23538406167134 x[5] + 10000 x[6]
Subject To
 R0: x[1] + x[2] + x[3] + x[4] + x[5] + x[6] - x[0] - x[0] - x[0] - x[0]
   - x[0] - x[0] = 0
 R1: - x[1] + x[0] + x[2] + x[3] + x[4] + x[5] + x[6] - x[1] - x[1] - x[1]
   - x[1] - x[1] = 0
 R2: - x[2] - x[2] + x[0] + x[1] + x[3] + x[4] + x[5] + x[6] - x[2] - x[2]
   - x[2] - x[2] = 0
 R3: - x[3] - x[3] - x[3] + x[0] + x[1] + x[2] + x[4] + x[5] + x[6] - x[3]
   - x[3] - x[3] = 0
 R4: - x[4] - x[4] - x[4] - x[4] + x[0] + x[1] + x[2] + x[3] + x[5] + x[6]
   - x[4] - x[4] = 0
 R5: - x[5] - x[5] - x[5] - x[5] - x[5] + x[0] + x[1] + x[2] + x[3] + x[4]
   + x[6] - x[5] = 0
 R6: - x[6] - x[6] - x[6] - x[6] - x[6] - x[6] + x[0] + x[1] + x[2] + x[3]
   + x[4] + x[5] = 0
 R7: x[1] + x[1] + x[1] + x[1] + x[1] + x[1] + x[1] = 1
 R8: x[2] + x[2] + x[2] + x[2] + x[2] + x[2] + x[2] = 1
 R9: x[3] + x[3] + x[3] + x[3] + x[3] + x[3] + x[3] = 1
 R10: x[4] + x[4] + x[4] + x[4] + x[4] + x[4] + x[4] = 1
 R11: x[5] + x[5] + x[5] + x[5] + x[5] + x[5] + x[5] = 1
 R12: x[6] + x[6] + x[6] + x[6] + x[6] + x[6] + x[6] = 1
 R13: x[1] + x[2] + x[3] + x[4] + x[5] + x[6] = 1
 R14: t[0,6] >= 0
 R15: t[0,6] <= 1236
 R16: t[1,6] >= 65
 R17: t[1,6] <= 146
 R18: t[2,6] >= 15
 R19: t[2,6] <= 67
 R20: t[3,6] >= 621
 R21: t[3,6] <= 702
 R22: t[4,6] >= 255
 R23: t[4,6] <= 324
 R24: t[5,6] >= 534
 R25: t[5,6] <= 605
 R26: t[6,6] >= 448
 R27: t[6,6] <= 505
 R28: 10000 x[1] + t[0,6] - t[1,6] <= 9983.875484503404
 R29: 10000 x[2] + t[0,6] - t[2,6] <= 9984.867254049579
 R30: 10000 x[3] + t[0,6] - t[3,6] <= 9981
 R31: 10000 x[4] + t[0,6] - t[4,6] <= 9981.889229723725
 R32: 10000 x[5] + t[0,6] - t[5,6] <= 9979.900248757758
 R33: 10000 x[6] + t[0,6] - t[6,6] <= 9998.585786437627
 R34: 10000 x[1] <= -90
 R35: 10000 x[2] + t[1,6] - t[2,6] <= 9909
 R36: 10000 x[3] + t[1,6] - t[3,6] <= 9906.394448724535
 R37: 10000 x[4] + t[1,6] - t[4,6] <= 9905.527864045
 R38: 10000 x[5] + t[1,6] - t[5,6] <= 9904.343145750508
 R39: 10000 x[6] + t[1,6] - t[6,6] <= 9894.966703621627
 R40: 10000 x[1] - t[1,6] + t[2,6] <= 9909
 R41: 10000 x[2] <= -90
 R42: 10000 x[3] + t[2,6] - t[3,6] <= 9905.527864045
 R43: 10000 x[4] + t[2,6] - t[4,6] <= 9905
 R44: 10000 x[5] + t[2,6] - t[5,6] <= 9903.596875762567
 R45: 10000 x[6] + t[2,6] - t[6,6] <= 9895.964331152381
 R46: 10000 x[1] - t[1,6] + t[3,6] <= 9906.394448724535
 R47: 10000 x[2] - t[2,6] + t[3,6] <= 9905.527864045
 R48: 10000 x[3] <= -90
 R49: 10000 x[4] + t[3,6] - t[4,6] <= 9907.763932022501
 R50: 10000 x[5] + t[3,6] - t[5,6] <= 9907.763932022501
 R51: 10000 x[6] + t[3,6] - t[6,6] <= 9891.97224362268
 R52: 10000 x[1] - t[1,6] + t[4,6] <= 9905.527864045
 R53: 10000 x[2] - t[2,6] + t[4,6] <= 9905
 R54: 10000 x[3] - t[3,6] + t[4,6] <= 9907.763932022501
 R55: 10000 x[4] <= -90
 R56: 10000 x[5] + t[4,6] - t[5,6] <= 9908
 R57: 10000 x[6] + t[4,6] - t[6,6] <= 9892.737323498368
 R58: 10000 x[1] - t[1,6] + t[5,6] <= 9904.343145750508
 R59: 10000 x[2] - t[2,6] + t[5,6] <= 9903.596875762567
 R60: 10000 x[3] - t[3,6] + t[5,6] <= 9907.763932022501
 R61: 10000 x[4] - t[4,6] + t[5,6] <= 9908
 R62: 10000 x[5] <= -90
 R63: 10000 x[6] + t[5,6] - t[6,6] <= 9890.764615938329
 R64: 10000 x[1] - t[1,6] + t[6,6] <= 9894.966703621627
 R65: 10000 x[2] - t[2,6] + t[6,6] <= 9895.964331152381
 R66: 10000 x[3] - t[3,6] + t[6,6] <= 9891.97224362268
 R67: 10000 x[4] - t[4,6] + t[6,6] <= 9892.737323498368
 R68: 10000 x[5] - t[5,6] + t[6,6] <= 9890.764615938329
 R69: 10000 x[6] <= -90
Bounds
Binaries
 x[0] x[1] x[2] x[3] x[4] x[5] x[6] x[0] x[1] x[2] x[3] x[4] x[5] x[6] x[0]
 x[1] x[2] x[3] x[4] x[5] x[6] x[0] x[1] x[2] x[3] x[4] x[5] x[6] x[0] x[1]
 x[2] x[3] x[4] x[5] x[6] x[0] x[1] x[2] x[3] x[4] x[5] x[6] x[0] x[1] x[2]
 x[3] x[4] x[5] x[6]
End
